start = 1;
limit = 6;
n = 14;
m=[|-1,-1,15,11,18,8,3,-1,-1,7,4,-1,-1,4,
|-1,-1,-1,19,1,-1,-1,0,-1,11,-1,-1,6,-1,
|-1,14,-1,12,17,-1,18,2,-1,-1,17,-1,6,-1,
|-1,-1,-1,-1,4,-1,-1,1,-1,-1,6,-1,14,-1,
|16,-1,9,-1,-1,10,-1,-1,-1,-1,-1,20,3,1,
|-1,20,14,13,-1,-1,11,4,-1,-1,-1,-1,-1,-1,
|-1,-1,-1,1,-1,-1,-1,-1,-1,17,4,3,-1,-1,
|8,9,-1,-1,-1,-1,-1,-1,-1,16,20,-1,14,-1,
|3,20,0,15,2,-1,0,-1,-1,-1,-1,-1,-1,-1,
|3,20,5,6,-1,19,-1,-1,-1,-1,15,18,16,9,
|1,10,-1,7,-1,-1,-1,-1,0,-1,-1,15,-1,5,
|9,-1,-1,2,6,20,5,-1,11,-1,14,-1,19,4,
|-1,-1,-1,3,2,9,0,0,-1,-1,10,13,-1,-1,
|7,-1,-1,-1,-1,0,12,-1,-1,-1,-1,9,5,-1,
|]
;